WARNING: for repeatability, setting FPU to use double precision
============================[ Problem Statistics ]=============================
|                                                                             |
|  Number of variables:           100                                         |
|  Number of clauses:             449                                         |
|  Parse time:                   0.00 s                                       |
|  Eliminated clauses:           0.00 Mb                                      |
|  Simplification time:          0.00 s                                       |
|                                                                             |
============================[ Search Statistics ]==============================
| Conflicts |          ORIGINAL         |          LEARNT          | Progress |
|           |    Vars  Clauses Literals |    Limit  Clauses Lit/Cl |          |
===============================================================================
|       100 |      99      448     1349 |      164      100      7 |  0.010 % |
===============================================================================
restarts              : 2
conflicts             : 177            (83926 /sec)
decisions             : 232            (0.00 % random) (110005 /sec)
propagations          : 4025           (1908487 /sec)
conflict literals     : 1219           (17.86 % deleted)
Memory used           : 13.00 MB
CPU time              : 0.002109 s

SATISFIABLE
